; benchmark generated from python API
(set-info :status unknown)
(declare-fun x_months () Int)
(declare-fun x_beta () Int)
(declare-fun y_months () Int)
(declare-fun y_beta () Int)
(assert
 (<= (- 1202) x_months))
(assert
 (>= 1209 x_months))
(assert
 (let ((?x2028 (mod x_months 48)))
 (let ((?x13 ((as const (Array Int Int)) 0)))
 (let ((?x15 (store ?x13 0 31)))
 (let ((?x18 (store ?x15 1 30)))
 (let ((?x20 (store ?x18 2 31)))
 (let ((?x22 (store ?x20 3 30)))
 (let ((?x24 (store ?x22 4 31)))
 (let ((?x26 (store ?x24 5 31)))
 (let ((?x28 (store ?x26 6 30)))
 (let ((?x30 (store ?x28 7 31)))
 (let ((?x32 (store ?x30 8 30)))
 (let ((?x34 (store ?x32 9 31)))
 (let ((?x36 (store ?x34 10 31)))
 (let ((?x39 (store ?x36 11 28)))
 (let ((?x41 (store ?x39 12 31)))
 (let ((?x43 (store ?x41 13 30)))
 (let ((?x45 (store ?x43 14 31)))
 (let ((?x47 (store ?x45 15 30)))
 (let ((?x49 (store ?x47 16 31)))
 (let ((?x51 (store ?x49 17 31)))
 (let ((?x53 (store ?x51 18 30)))
 (let ((?x55 (store ?x53 19 31)))
 (let ((?x57 (store ?x55 20 30)))
 (let ((?x59 (store ?x57 21 31)))
 (let ((?x61 (store ?x59 22 31)))
 (let ((?x63 (store ?x61 23 28)))
 (let ((?x65 (store ?x63 24 31)))
 (let ((?x67 (store ?x65 25 30)))
 (let ((?x69 (store ?x67 26 31)))
 (let ((?x71 (store ?x69 27 30)))
 (let ((?x72 (store ?x71 28 31)))
 (let ((?x74 (store ?x72 29 31)))
 (let ((?x75 (store ?x74 30 30)))
 (let ((?x76 (store ?x75 31 31)))
 (let ((?x78 (store ?x76 32 30)))
 (let ((?x80 (store ?x78 33 31)))
 (let ((?x82 (store ?x80 34 31)))
 (let ((?x84 (store ?x82 35 28)))
 (let ((?x86 (store ?x84 36 31)))
 (let ((?x88 (store ?x86 37 30)))
 (let ((?x90 (store ?x88 38 31)))
 (let ((?x92 (store ?x90 39 30)))
 (let ((?x94 (store ?x92 40 31)))
 (let ((?x96 (store ?x94 41 31)))
 (let ((?x98 (store ?x96 42 30)))
 (let ((?x100 (store ?x98 43 31)))
 (let ((?x102 (store ?x100 44 30)))
 (let ((?x104 (store ?x102 45 31)))
 (let ((?x106 (store ?x104 46 31)))
 (let ((?x108 (store ?x106 47 29)))
 (let ((?x1759 (ite (or (= 22802 (+ x_months 24003)) (= 25202 (+ x_months 24003))) 28 (select ?x108 ?x2028))))
 (let (($x1758 (<= 0 x_beta)))
 (and $x1758 (< x_beta ?x1759)))))))))))))))))))))))))))))))))))))))))))))))))))))))
(assert
 (<= (- 1202) y_months))
(assert
 (>= 1209 y_months))
(assert
 (let ((?x3386 (mod y_months 48)))
 (let ((?x13 ((as const (Array Int Int)) 0)))
 (let ((?x15 (store ?x13 0 31)))
 (let ((?x18 (store ?x15 1 30)))
 (let ((?x20 (store ?x18 2 31)))
 (let ((?x22 (store ?x20 3 30)))
 (let ((?x24 (store ?x22 4 31)))
 (let ((?x26 (store ?x24 5 31)))
 (let ((?x28 (store ?x26 6 30)))
 (let ((?x30 (store ?x28 7 31)))
 (let ((?x32 (store ?x30 8 30)))
 (let ((?x34 (store ?x32 9 31)))
 (let ((?x36 (store ?x34 10 31)))
 (let ((?x39 (store ?x36 11 28)))
 (let ((?x41 (store ?x39 12 31)))
 (let ((?x43 (store ?x41 13 30)))
 (let ((?x45 (store ?x43 14 31)))
 (let ((?x47 (store ?x45 15 30)))
 (let ((?x49 (store ?x47 16 31)))
 (let ((?x51 (store ?x49 17 31)))
 (let ((?x53 (store ?x51 18 30)))
 (let ((?x55 (store ?x53 19 31)))
 (let ((?x57 (store ?x55 20 30)))
 (let ((?x59 (store ?x57 21 31)))
 (let ((?x61 (store ?x59 22 31)))
 (let ((?x63 (store ?x61 23 28)))
 (let ((?x65 (store ?x63 24 31)))
 (let ((?x67 (store ?x65 25 30)))
 (let ((?x69 (store ?x67 26 31)))
 (let ((?x71 (store ?x69 27 30)))
 (let ((?x72 (store ?x71 28 31)))
 (let ((?x74 (store ?x72 29 31)))
 (let ((?x75 (store ?x74 30 30)))
 (let ((?x76 (store ?x75 31 31)))
 (let ((?x78 (store ?x76 32 30)))
 (let ((?x80 (store ?x78 33 31)))
 (let ((?x82 (store ?x80 34 31)))
 (let ((?x84 (store ?x82 35 28)))
 (let ((?x86 (store ?x84 36 31)))
 (let ((?x88 (store ?x86 37 30)))
 (let ((?x90 (store ?x88 38 31)))
 (let ((?x92 (store ?x90 39 30)))
 (let ((?x94 (store ?x92 40 31)))
 (let ((?x96 (store ?x94 41 31)))
 (let ((?x98 (store ?x96 42 30)))
 (let ((?x100 (store ?x98 43 31)))
 (let ((?x102 (store ?x100 44 30)))
 (let ((?x104 (store ?x102 45 31)))
 (let ((?x106 (store ?x104 46 31)))
 (let ((?x108 (store ?x106 47 29)))
 (let ((?x2934 (select ?x108 ?x3386)))
 (let ((?x3205 (ite (or (= 22802 (+ y_months 24003)) (= 25202 (+ y_months 24003))) 28 ?x2934)))
 (and (<= 0 y_beta) (< y_beta ?x3205)))))))))))))))))))))))))))))))))))))))))))))))))))))))
(assert
 (and (= x_months (- (+ (* 2023 12) 1) 24003)) (= 30 x_beta)))
(assert
 (let ((?x3191 (+ x_months 3)))
 (let ((?x2601 (mod ?x3191 48)))
 (let ((?x366 (ite (> 22803 (+ ?x3191 24003)) 1 (ite (<= 25203 (+ ?x3191 24003)) (- 1) 0))))
 (let ((?x13 ((as const (Array Int Int)) 0)))
 (let ((?x15 (store ?x13 0 31)))
 (let ((?x18 (store ?x15 1 30)))
 (let ((?x20 (store ?x18 2 31)))
 (let ((?x22 (store ?x20 3 30)))
 (let ((?x24 (store ?x22 4 31)))
 (let ((?x26 (store ?x24 5 31)))
 (let ((?x28 (store ?x26 6 30)))
 (let ((?x30 (store ?x28 7 31)))
 (let ((?x32 (store ?x30 8 30)))
 (let ((?x34 (store ?x32 9 31)))
 (let ((?x36 (store ?x34 10 31)))
 (let ((?x39 (store ?x36 11 28)))
 (let ((?x41 (store ?x39 12 31)))
 (let ((?x43 (store ?x41 13 30)))
 (let ((?x45 (store ?x43 14 31)))
 (let ((?x47 (store ?x45 15 30)))
 (let ((?x49 (store ?x47 16 31)))
 (let ((?x51 (store ?x49 17 31)))
 (let ((?x53 (store ?x51 18 30)))
 (let ((?x55 (store ?x53 19 31)))
 (let ((?x57 (store ?x55 20 30)))
 (let ((?x59 (store ?x57 21 31)))
 (let ((?x61 (store ?x59 22 31)))
 (let ((?x63 (store ?x61 23 28)))
 (let ((?x65 (store ?x63 24 31)))
 (let ((?x67 (store ?x65 25 30)))
 (let ((?x69 (store ?x67 26 31)))
 (let ((?x71 (store ?x69 27 30)))
 (let ((?x72 (store ?x71 28 31)))
 (let ((?x74 (store ?x72 29 31)))
 (let ((?x75 (store ?x74 30 30)))
 (let ((?x76 (store ?x75 31 31)))
 (let ((?x78 (store ?x76 32 30)))
 (let ((?x80 (store ?x78 33 31)))
 (let ((?x82 (store ?x80 34 31)))
 (let ((?x84 (store ?x82 35 28)))
 (let ((?x86 (store ?x84 36 31)))
 (let ((?x88 (store ?x86 37 30)))
 (let ((?x90 (store ?x88 38 31)))
 (let ((?x92 (store ?x90 39 30)))
 (let ((?x94 (store ?x92 40 31)))
 (let ((?x96 (store ?x94 41 31)))
 (let ((?x98 (store ?x96 42 30)))
 (let ((?x100 (store ?x98 43 31)))
 (let ((?x102 (store ?x100 44 30)))
 (let ((?x104 (store ?x102 45 31)))
 (let ((?x106 (store ?x104 46 31)))
 (let ((?x108 (store ?x106 47 29)))
 (let ((?x1839 (ite (or (= 22802 (+ ?x3191 24003)) (= 25202 (+ ?x3191 24003))) 28 (select ?x108 ?x2601))))
 (let ((?x3135 (- ?x1839 1)))
 (let ((?x114 (store (store (store (store ?x13 0 0) 1 31) 2 61) 3 92)))
 (let ((?x122 (store (store (store (store ?x114 4 122) 5 153) 6 184) 7 214)))
 (let ((?x130 (store (store (store (store ?x122 8 245) 9 275) 10 306) 11 337)))
 (let ((?x138 (store (store (store (store ?x130 12 365) 13 396) 14 426) 15 457)))
 (let ((?x146 (store (store (store (store ?x138 16 487) 17 518) 18 549) 19 579)))
 (let ((?x154 (store (store (store (store ?x146 20 610) 21 640) 22 671) 23 702)))
 (let ((?x162 (store (store (store (store ?x154 24 730) 25 761) 26 791) 27 822)))
 (let ((?x170 (store (store (store (store ?x162 28 852) 29 883) 30 914) 31 944)))
 (let ((?x178 (store (store (store (store ?x170 32 975) 33 1005) 34 1036) 35 1067)))
 (let ((?x186 (store (store (store (store ?x178 36 1095) 37 1126) 38 1156) 39 1187)))
 (let ((?x194 (store (store (store (store ?x186 40 1217) 41 1248) 42 1279) 43 1309)))
 (let ((?x202 (store (store (store (store ?x194 44 1340) 45 1370) 46 1401) 47 1432)))
 (let ((?x3324 (+ (select ?x202 ?x2601) (ite (> 0 x_beta) 0 (ite (> x_beta ?x3135) ?x3135 x_beta)))))
 (let ((?x2374 (+ (+ ?x3324 ?x366) 0)))
 (let ((?x555 (+ ?x3191 (* (div ?x2374 1461) 48))))
 (let ((?x3178 (+ (+ ?x555 (- 1 ?x2601)) 24003)))
 (let ((?x1819 (+ (select ?x202 1) (ite (> 22803 ?x3178) 1 (ite (<= 25203 ?x3178) (- 1) 0)))))
 (let ((?x1924 (mod ?x2374 1461)))
 (let ((?x1578 (ite (> 22803 (+ (+ ?x555 (- 2 ?x2601)) 24003)) 1 (ite (<= 25203 (+ (+ ?x555 (- 2 ?x2601)) 24003)) (- 1) 0))))
 (let ((?x660 (ite (>= ?x1924 (+ (select ?x202 2) ?x1578)) 2 (ite (>= ?x1924 ?x1819) 1 0))))
 (let ((?x268 (ite (> 22803 (+ (+ ?x555 (- 3 ?x2601)) 24003)) 1 (ite (<= 25203 (+ (+ ?x555 (- 3 ?x2601)) 24003)) (- 1) 0))))
 (let ((?x1739 (ite (> 22803 (+ (+ ?x555 (- 4 ?x2601)) 24003)) 1 (ite (<= 25203 (+ (+ ?x555 (- 4 ?x2601)) 24003)) (- 1) 0))))
 (let ((?x2960 (ite (>= ?x1924 (+ (select ?x202 4) ?x1739)) 4 (ite (>= ?x1924 (+ (select ?x202 3) ?x268)) 3 ?x660))))
 (let ((?x2048 (ite (> 22803 (+ (+ ?x555 (- 5 ?x2601)) 24003)) 1 (ite (<= 25203 (+ (+ ?x555 (- 5 ?x2601)) 24003)) (- 1) 0))))
 (let ((?x3695 (ite (> 22803 (+ (+ ?x555 (- 6 ?x2601)) 24003)) 1 (ite (<= 25203 (+ (+ ?x555 (- 6 ?x2601)) 24003)) (- 1) 0))))
 (let ((?x3173 (ite (>= ?x1924 (+ (select ?x202 6) ?x3695)) 6 (ite (>= ?x1924 (+ (select ?x202 5) ?x2048)) 5 ?x2960))))
 (let ((?x2719 (ite (> 22803 (+ (+ ?x555 (- 7 ?x2601)) 24003)) 1 (ite (<= 25203 (+ (+ ?x555 (- 7 ?x2601)) 24003)) (- 1) 0))))
 (let ((?x1821 (ite (> 22803 (+ (+ ?x555 (- 8 ?x2601)) 24003)) 1 (ite (<= 25203 (+ (+ ?x555 (- 8 ?x2601)) 24003)) (- 1) 0))))
 (let ((?x4568 (ite (>= ?x1924 (+ (select ?x202 8) ?x1821)) 8 (ite (>= ?x1924 (+ (select ?x202 7) ?x2719)) 7 ?x3173))))
 (let ((?x2525 (ite (> 22803 (+ (+ ?x555 (- 9 ?x2601)) 24003)) 1 (ite (<= 25203 (+ (+ ?x555 (- 9 ?x2601)) 24003)) (- 1) 0))))
 (let ((?x642 (ite (> 22803 (+ (+ ?x555 (- 10 ?x2601)) 24003)) 1 (ite (<= 25203 (+ (+ ?x555 (- 10 ?x2601)) 24003)) (- 1) 0))))
 (let ((?x795 (ite (>= ?x1924 (+ (select ?x202 10) ?x642)) 10 (ite (>= ?x1924 (+ (select ?x202 9) ?x2525)) 9 ?x4568))))
 (let ((?x1958 (ite (> 22803 (+ (+ ?x555 (- 11 ?x2601)) 24003)) 1 (ite (<= 25203 (+ (+ ?x555 (- 11 ?x2601)) 24003)) (- 1) 0))))
 (let ((?x1449 (ite (> 22803 (+ (+ ?x555 (- 12 ?x2601)) 24003)) 1 (ite (<= 25203 (+ (+ ?x555 (- 12 ?x2601)) 24003)) (- 1) 0))))
 (let ((?x1762 (ite (>= ?x1924 (+ (select ?x202 12) ?x1449)) 12 (ite (>= ?x1924 (+ (select ?x202 11) ?x1958)) 11 ?x795))))
 (let ((?x1502 (ite (> 22803 (+ (+ ?x555 (- 13 ?x2601)) 24003)) 1 (ite (<= 25203 (+ (+ ?x555 (- 13 ?x2601)) 24003)) (- 1) 0))))
 (let ((?x1707 (ite (> 22803 (+ (+ ?x555 (- 14 ?x2601)) 24003)) 1 (ite (<= 25203 (+ (+ ?x555 (- 14 ?x2601)) 24003)) (- 1) 0))))
 (let ((?x260 (ite (>= ?x1924 (+ (select ?x202 14) ?x1707)) 14 (ite (>= ?x1924 (+ (select ?x202 13) ?x1502)) 13 ?x1762))))
 (let ((?x821 (ite (> 22803 (+ (+ ?x555 (- 15 ?x2601)) 24003)) 1 (ite (<= 25203 (+ (+ ?x555 (- 15 ?x2601)) 24003)) (- 1) 0))))
 (let ((?x699 (ite (> 22803 (+ (+ ?x555 (- 16 ?x2601)) 24003)) 1 (ite (<= 25203 (+ (+ ?x555 (- 16 ?x2601)) 24003)) (- 1) 0))))
 (let ((?x3678 (ite (>= ?x1924 (+ (select ?x202 16) ?x699)) 16 (ite (>= ?x1924 (+ (select ?x202 15) ?x821)) 15 ?x260))))
 (let ((?x4835 (ite (> 22803 (+ (+ ?x555 (- 17 ?x2601)) 24003)) 1 (ite (<= 25203 (+ (+ ?x555 (- 17 ?x2601)) 24003)) (- 1) 0))))
 (let ((?x4855 (ite (> 22803 (+ (+ ?x555 (- 18 ?x2601)) 24003)) 1 (ite (<= 25203 (+ (+ ?x555 (- 18 ?x2601)) 24003)) (- 1) 0))))
 (let ((?x3475 (ite (>= ?x1924 (+ (select ?x202 18) ?x4855)) 18 (ite (>= ?x1924 (+ (select ?x202 17) ?x4835)) 17 ?x3678))))
 (let ((?x3641 (ite (> 22803 (+ (+ ?x555 (- 19 ?x2601)) 24003)) 1 (ite (<= 25203 (+ (+ ?x555 (- 19 ?x2601)) 24003)) (- 1) 0))))
 (let ((?x4330 (ite (> 22803 (+ (+ ?x555 (- 20 ?x2601)) 24003)) 1 (ite (<= 25203 (+ (+ ?x555 (- 20 ?x2601)) 24003)) (- 1) 0))))
 (let ((?x3802 (ite (>= ?x1924 (+ (select ?x202 20) ?x4330)) 20 (ite (>= ?x1924 (+ (select ?x202 19) ?x3641)) 19 ?x3475))))
 (let ((?x4726 (ite (> 22803 (+ (+ ?x555 (- 21 ?x2601)) 24003)) 1 (ite (<= 25203 (+ (+ ?x555 (- 21 ?x2601)) 24003)) (- 1) 0))))
 (let ((?x3589 (ite (> 22803 (+ (+ ?x555 (- 22 ?x2601)) 24003)) 1 (ite (<= 25203 (+ (+ ?x555 (- 22 ?x2601)) 24003)) (- 1) 0))))
 (let ((?x3611 (ite (>= ?x1924 (+ (select ?x202 22) ?x3589)) 22 (ite (>= ?x1924 (+ (select ?x202 21) ?x4726)) 21 ?x3802))))
 (let ((?x1793 (ite (> 22803 (+ (+ ?x555 (- 23 ?x2601)) 24003)) 1 (ite (<= 25203 (+ (+ ?x555 (- 23 ?x2601)) 24003)) (- 1) 0))))
 (let ((?x3339 (ite (> 22803 (+ (+ ?x555 (- 24 ?x2601)) 24003)) 1 (ite (<= 25203 (+ (+ ?x555 (- 24 ?x2601)) 24003)) (- 1) 0))))
 (let ((?x4052 (ite (>= ?x1924 (+ (select ?x202 24) ?x3339)) 24 (ite (>= ?x1924 (+ (select ?x202 23) ?x1793)) 23 ?x3611))))
 (let ((?x2098 (ite (> 22803 (+ (+ ?x555 (- 25 ?x2601)) 24003)) 1 (ite (<= 25203 (+ (+ ?x555 (- 25 ?x2601)) 24003)) (- 1) 0))))
 (let ((?x2212 (ite (> 22803 (+ (+ ?x555 (- 26 ?x2601)) 24003)) 1 (ite (<= 25203 (+ (+ ?x555 (- 26 ?x2601)) 24003)) (- 1) 0))))
 (let ((?x3036 (ite (>= ?x1924 (+ (select ?x202 26) ?x2212)) 26 (ite (>= ?x1924 (+ (select ?x202 25) ?x2098)) 25 ?x4052))))
 (let ((?x1233 (ite (> 22803 (+ (+ ?x555 (- 27 ?x2601)) 24003)) 1 (ite (<= 25203 (+ (+ ?x555 (- 27 ?x2601)) 24003)) (- 1) 0))))
 (let ((?x3543 (ite (> 22803 (+ (+ ?x555 (- 28 ?x2601)) 24003)) 1 (ite (<= 25203 (+ (+ ?x555 (- 28 ?x2601)) 24003)) (- 1) 0))))
 (let ((?x3912 (ite (>= ?x1924 (+ (select ?x202 28) ?x3543)) 28 (ite (>= ?x1924 (+ (select ?x202 27) ?x1233)) 27 ?x3036))))
 (let ((?x4696 (ite (> 22803 (+ (+ ?x555 (- 29 ?x2601)) 24003)) 1 (ite (<= 25203 (+ (+ ?x555 (- 29 ?x2601)) 24003)) (- 1) 0))))
 (let ((?x3616 (ite (> 22803 (+ (+ ?x555 (- 30 ?x2601)) 24003)) 1 (ite (<= 25203 (+ (+ ?x555 (- 30 ?x2601)) 24003)) (- 1) 0))))
 (let ((?x3658 (ite (>= ?x1924 (+ (select ?x202 30) ?x3616)) 30 (ite (>= ?x1924 (+ (select ?x202 29) ?x4696)) 29 ?x3912))))
 (let ((?x2207 (ite (> 22803 (+ (+ ?x555 (- 31 ?x2601)) 24003)) 1 (ite (<= 25203 (+ (+ ?x555 (- 31 ?x2601)) 24003)) (- 1) 0))))
 (let ((?x2579 (ite (> 22803 (+ (+ ?x555 (- 32 ?x2601)) 24003)) 1 (ite (<= 25203 (+ (+ ?x555 (- 32 ?x2601)) 24003)) (- 1) 0))))
 (let ((?x2642 (ite (>= ?x1924 (+ (select ?x202 32) ?x2579)) 32 (ite (>= ?x1924 (+ (select ?x202 31) ?x2207)) 31 ?x3658))))
 (let ((?x3323 (ite (> 22803 (+ (+ ?x555 (- 33 ?x2601)) 24003)) 1 (ite (<= 25203 (+ (+ ?x555 (- 33 ?x2601)) 24003)) (- 1) 0))))
 (let ((?x4136 (ite (> 22803 (+ (+ ?x555 (- 34 ?x2601)) 24003)) 1 (ite (<= 25203 (+ (+ ?x555 (- 34 ?x2601)) 24003)) (- 1) 0))))
 (let ((?x2035 (ite (>= ?x1924 (+ (select ?x202 34) ?x4136)) 34 (ite (>= ?x1924 (+ (select ?x202 33) ?x3323)) 33 ?x2642))))
 (let ((?x2371 (ite (> 22803 (+ (+ ?x555 (- 35 ?x2601)) 24003)) 1 (ite (<= 25203 (+ (+ ?x555 (- 35 ?x2601)) 24003)) (- 1) 0))))
 (let ((?x3712 (ite (> 22803 (+ (+ ?x555 (- 36 ?x2601)) 24003)) 1 (ite (<= 25203 (+ (+ ?x555 (- 36 ?x2601)) 24003)) (- 1) 0))))
 (let ((?x3628 (ite (>= ?x1924 (+ (select ?x202 36) ?x3712)) 36 (ite (>= ?x1924 (+ (select ?x202 35) ?x2371)) 35 ?x2035))))
 (let ((?x2887 (ite (> 22803 (+ (+ ?x555 (- 37 ?x2601)) 24003)) 1 (ite (<= 25203 (+ (+ ?x555 (- 37 ?x2601)) 24003)) (- 1) 0))))
 (let ((?x534 (ite (> 22803 (+ (+ ?x555 (- 38 ?x2601)) 24003)) 1 (ite (<= 25203 (+ (+ ?x555 (- 38 ?x2601)) 24003)) (- 1) 0))))
 (let ((?x3411 (ite (>= ?x1924 (+ (select ?x202 38) ?x534)) 38 (ite (>= ?x1924 (+ (select ?x202 37) ?x2887)) 37 ?x3628))))
 (let ((?x3642 (ite (> 22803 (+ (+ ?x555 (- 39 ?x2601)) 24003)) 1 (ite (<= 25203 (+ (+ ?x555 (- 39 ?x2601)) 24003)) (- 1) 0))))
 (let ((?x887 (ite (> 22803 (+ (+ ?x555 (- 40 ?x2601)) 24003)) 1 (ite (<= 25203 (+ (+ ?x555 (- 40 ?x2601)) 24003)) (- 1) 0))))
 (let ((?x4341 (ite (>= ?x1924 (+ (select ?x202 40) ?x887)) 40 (ite (>= ?x1924 (+ (select ?x202 39) ?x3642)) 39 ?x3411))))
 (let ((?x817 (ite (> 22803 (+ (+ ?x555 (- 41 ?x2601)) 24003)) 1 (ite (<= 25203 (+ (+ ?x555 (- 41 ?x2601)) 24003)) (- 1) 0))))
 (let ((?x4286 (ite (> 22803 (+ (+ ?x555 (- 42 ?x2601)) 24003)) 1 (ite (<= 25203 (+ (+ ?x555 (- 42 ?x2601)) 24003)) (- 1) 0))))
 (let ((?x1982 (ite (>= ?x1924 (+ (select ?x202 42) ?x4286)) 42 (ite (>= ?x1924 (+ (select ?x202 41) ?x817)) 41 ?x4341))))
 (let ((?x3676 (ite (> 22803 (+ (+ ?x555 (- 43 ?x2601)) 24003)) 1 (ite (<= 25203 (+ (+ ?x555 (- 43 ?x2601)) 24003)) (- 1) 0))))
 (let ((?x3558 (ite (> 22803 (+ (+ ?x555 (- 44 ?x2601)) 24003)) 1 (ite (<= 25203 (+ (+ ?x555 (- 44 ?x2601)) 24003)) (- 1) 0))))
 (let ((?x2144 (ite (>= ?x1924 (+ (select ?x202 44) ?x3558)) 44 (ite (>= ?x1924 (+ (select ?x202 43) ?x3676)) 43 ?x1982))))
 (let ((?x2195 (ite (> 22803 (+ (+ ?x555 (- 45 ?x2601)) 24003)) 1 (ite (<= 25203 (+ (+ ?x555 (- 45 ?x2601)) 24003)) (- 1) 0))))
 (let ((?x3476 (ite (> 22803 (+ (+ ?x555 (- 46 ?x2601)) 24003)) 1 (ite (<= 25203 (+ (+ ?x555 (- 46 ?x2601)) 24003)) (- 1) 0))))
 (let ((?x2033 (ite (>= ?x1924 (+ (select ?x202 46) ?x3476)) 46 (ite (>= ?x1924 (+ (select ?x202 45) ?x2195)) 45 ?x2144))))
 (let ((?x2918 (ite (> 22803 (+ (+ ?x555 (- 47 ?x2601)) 24003)) 1 (ite (<= 25203 (+ (+ ?x555 (- 47 ?x2601)) 24003)) (- 1) 0))))
 (let ((?x4265 (ite (>= ?x1924 (+ (select ?x202 47) ?x2918)) 47 ?x2033)))
 (let ((?x3810 (+ ?x555 (- ?x4265 ?x2601))))
 (let ((?x3554 (+ ?x3810 24003)))
 (let ((?x3568 (+ (select ?x202 ?x4265) (ite (> 22803 ?x3554) 1 (ite (<= 25203 ?x3554) (- 1) 0)))))
 (let ((?x4834 (- ?x1924 ?x3568)))
 (let ((?x1749 (ite (or (= 22802 ?x3554) (= 25202 ?x3554)) 28 (select ?x108 ?x4265))))
 (let (($x1274 (= y_beta (ite (= 1 (ite (>= ?x4834 ?x1749) 1 0)) (- ?x4834 ?x1749) ?x4834))))
 (and (= y_months (+ ?x3810 (ite (>= ?x4834 ?x1749) 1 0))) $x1274))))))))))))))))))))))))))))))))))))))))))))))))))))))))))))))))))))))))))))))))))))))))))))))))))))))))))))))))))))))))))))))))))))))))))))))))))))))
(assert
 (and (= y_months (- (+ (* 2023 12) 4) 24003)) (= 29 y_beta)))
(assert
 (and (= x_months (- (+ (* 2023 12) 1) 24003)) (= 30 x_beta)))
(assert
 (and (= y_months (- (+ (* 2023 12) 4) 24003)) (= 29 y_beta)))
(check-sat)
